p edge 25 29
e 0 3
e 0 12
e 0 14
e 0 22
e 1 10
e 1 20
e 2 3
e 2 12
e 4 7
e 5 13
e 5 24
e 6 7
e 6 9
e 6 11
e 6 19
e 7 19
e 7 21
e 9 16
e 11 17
e 11 24
e 12 14
e 12 17
e 13 16
e 15 21
e 15 24
e 19 20
e 21 22
e 21 23
e 23 24
